
List of user-set options:

                                    Name   Value                used
                        file_print_level = 5                     yes
                   hessian_approximation = limited-memory        yes
                           linear_solver = mumps                 yes
                             output_file = IPOPT.out             yes
                             print_level = 0                     yes
                      print_user_options = yes                   yes
                                      sb = yes                   yes
This is Ipopt version 3.14.4, running with linear solver MUMPS 5.2.1.

Number of nonzeros in equality constraint Jacobian...:        0
Number of nonzeros in inequality constraint Jacobian.:      780
Number of nonzeros in Lagrangian Hessian.............:        0

Total number of variables............................:       13
                     variables with only lower bounds:        1
                variables with lower and upper bounds:       12
                     variables with only upper bounds:        0
Total number of equality constraints.................:        0
Total number of inequality constraints...............:       60
        inequality constraints with only lower bounds:        0
   inequality constraints with lower and upper bounds:       60
        inequality constraints with only upper bounds:        0

iter    objective    inf_pr   inf_du lg(mu)  ||d||  lg(rg) alpha_du alpha_pr  ls
   0  1.0000000e+00 7.32e+00 1.51e-12   0.0 0.00e+00    -  0.00e+00 0.00e+00   0
   1  1.0007052e+00 7.31e+00 3.41e+00  -0.2 1.10e+01    -  1.35e-02 1.28e-03f  3
   2  1.0013037e+00 7.30e+00 1.14e+01  -0.9 1.14e+01    -  9.69e-03 1.25e-03h  3
   3  1.0027731e+00 7.27e+00 2.02e+01  -1.0 2.21e+01    -  6.89e-03 3.21e-03h  1
   4  1.0139838e+00 7.05e+00 2.34e+01   0.6 3.58e+01    -  2.91e-03 8.53e-03f  1
   5  1.0194474e+00 6.55e+00 2.82e+01   1.0 3.10e+01    -  1.07e-02 2.17e-02f  1
   6  1.0437012e+00 6.25e+00 2.95e+01   1.0 1.11e+01    -  3.84e-02 2.04e-02h  1
   7  1.0635891e+00 6.17e+00 7.79e+02   3.1 4.07e+02    -  5.67e-03 6.22e-04f  1
   8  1.0735898e+00 6.02e+00 4.65e+03   1.2 1.03e+01    -  1.40e-01 2.04e-02h  1
   9  1.0899389e+00 5.93e+00 1.23e+04   2.3 2.15e+01    -  3.03e-02 1.23e-02h  1
iter    objective    inf_pr   inf_du lg(mu)  ||d||  lg(rg) alpha_du alpha_pr  ls
  10  1.1013137e+00 5.90e+00 1.52e+05   3.4 3.25e+01    -  1.63e-02 2.01e-03h  1
  11  1.1115240e+00 5.90e+00 2.54e+05   3.8 9.24e+01    -  4.13e-03 1.05e-03f  3
  12  1.1218664e+00 5.89e+00 6.02e+05   3.7 6.26e+01    -  1.76e-02 1.33e-03h  3
  13  1.1288153e+00 5.87e+00 6.73e+05   4.2 3.99e+01    -  1.01e-02 4.23e-03f  1
  14  1.1246736e+00 5.83e+00 7.22e+05   3.8 3.24e+01    -  1.40e-02 7.80e-03h  1
  15  1.1151040e+00 5.81e+00 7.26e+05   4.2 5.54e+01    -  8.19e-03 4.30e-03h  1
  16  1.1154568e+00 5.80e+00 7.22e+05  -3.3 3.15e+01    -  7.73e-03 1.06e-03h  1
  17  1.1208287e+00 5.70e+00 8.85e+05   3.9 1.70e+01    -  2.22e-01 1.68e-02f  1
  18  1.1264534e+00 5.65e+00 8.78e+05  -2.7 1.03e+01    -  6.35e-03 6.30e-03h  1
  19  1.1467217e+00 5.05e+00 1.09e+06   4.2 7.95e+00    -  8.39e-03 1.19e-01f  1
iter    objective    inf_pr   inf_du lg(mu)  ||d||  lg(rg) alpha_du alpha_pr  ls
  20  1.3268486e+00 4.38e+00 8.63e+05   3.4 6.64e+00    -  2.21e-01 1.74e-01h  1
  21  1.5771417e+00 3.43e+00 5.18e+05   3.0 4.70e+00    -  4.42e-01 2.29e-01h  1
  22  2.4060058e+00 2.02e+00 7.16e+05   3.7 5.33e+00    -  1.39e-01 6.60e-01f  1
  23  3.6170608e+00 1.06e+00 4.13e+06   4.1 7.90e+00    -  2.74e-01 7.85e-01f  1
  24  4.8063182e+00 3.56e-01 5.10e+06   3.7 5.30e+00    -  6.31e-01 9.90e-01f  1
  25  5.4102306e+00 1.52e-02 1.55e+06   1.6 2.71e+00    -  8.55e-01 9.93e-01h  1
  26  5.5183862e+00 0.00e+00 4.49e+06   1.2 5.03e-01    -  9.89e-01 1.00e+00h  1
  27  5.5210120e+00 0.00e+00 3.65e+06  -0.7 2.49e-02    -  9.91e-01 1.00e+00h  1
  28  5.1666190e+00 0.00e+00 5.61e-02  -1.2 1.91e+00    -  1.00e+00 1.00e+00f  1
  29  3.7551471e+00 3.04e-02 1.42e+06  -7.2 8.78e+00    -  7.86e-01 1.00e+00f  1
iter    objective    inf_pr   inf_du lg(mu)  ||d||  lg(rg) alpha_du alpha_pr  ls
  30  3.6093480e+00 4.05e-02 1.81e+05  -2.3 1.80e+00    -  1.00e+00 6.23e-01h  1
  31  3.6016374e+00 1.48e-03 6.95e+03  -2.7 5.25e-01    -  1.00e+00 9.20e-01h  1
  32  3.5672643e+00 7.74e-03 6.51e+04  -3.3 2.49e+00    -  1.00e+00 6.20e-01h  1
  33  3.5205251e+00 1.88e-01 1.02e+03  -3.0 6.66e+00    -  1.00e+00 9.07e-01h  1
  34  3.5177533e+00 3.30e-02 2.55e-02  -3.4 2.55e+00    -  1.00e+00 1.00e+00h  1
  35  3.5360872e+00 6.97e-03 6.67e-03  -3.8 6.28e-01    -  1.00e+00 1.00e+00h  1
  36  3.5389358e+00 4.72e-03 2.49e+03  -3.4 1.02e+00    -  1.00e+00 9.10e-01h  1
  37  3.5395137e+00 0.00e+00 2.81e-03  -3.5 6.88e-02    -  1.00e+00 1.00e+00h  1
  38  3.5362256e+00 0.00e+00 4.75e+03  -5.1 8.01e-02    -  9.94e-01 8.47e-01h  1
  39  3.5357822e+00 0.00e+00 3.54e+02  -6.0 2.47e-02    -  1.00e+00 9.38e-01h  1
iter    objective    inf_pr   inf_du lg(mu)  ||d||  lg(rg) alpha_du alpha_pr  ls
  40  3.5357419e+00 8.86e-08 1.77e+00  -7.4 2.36e-03    -  1.00e+00 9.96e-01h  1
  41  3.5357412e+00 3.45e-09 1.38e-06  -9.0 9.56e-04    -  1.00e+00 9.96e-01h  1
  42  3.5357412e+00 1.28e-10 8.01e-08 -11.0 1.56e-04    -  1.00e+00 1.00e+00h  1
  43  3.5357412e+00 0.00e+00 4.79e-08 -11.0 3.86e-06    -  1.00e+00 1.00e+00h  1
  44  3.5357412e+00 0.00e+00 3.36e-09 -11.0 3.06e-06    -  1.00e+00 1.00e+00h  1

Number of Iterations....: 44

                                   (scaled)                 (unscaled)
Objective...............:   3.5357412109193147e+00    3.5357412109193147e+00
Dual infeasibility......:   3.3590518651356194e-09    3.3590518651356194e-09
Constraint violation....:   0.0000000000000000e+00    0.0000000000000000e+00
Variable bound violation:   0.0000000000000000e+00    0.0000000000000000e+00
Complementarity.........:   1.0000061210748935e-11    1.0000061210748935e-11
Overall NLP error.......:   3.3590518651356194e-09    3.3590518651356194e-09


Number of objective function evaluations             = 57
Number of objective gradient evaluations             = 45
Number of equality constraint evaluations            = 0
Number of inequality constraint evaluations          = 57
Number of equality constraint Jacobian evaluations   = 0
Number of inequality constraint Jacobian evaluations = 45
Number of Lagrangian Hessian evaluations             = 0
Total seconds in IPOPT                               = 0.450

EXIT: Optimal Solution Found.
